MATRIX
2147483647 619 64 727 985 482 583 182 543 46 
619 2147483647 253 675 81 598 881 397 28 940 
64 253 2147483647 172 373 619 128 129 709 824 
727 675 172 2147483647 498 941 356 898 228 931 
985 81 373 498 2147483647 12 144 778 530 23 
482 598 619 941 12 2147483647 984 703 18 136 
583 881 128 356 144 984 2147483647 341 596 20 
182 397 129 898 778 703 341 2147483647 89 132 
543 28 709 228 530 18 596 89 2147483647 935 
46 940 824 931 23 136 20 132 935 2147483647 
